% Use this editor as a MiniZinc scratch book
%d=[1,2,3];
n=3;
Arch_size=3;
R=3;
m=2;
s1=1;
%alpha=[3,2,1];  
%beta=[1,2,3];
%gamma=[1,1,1];
WCECtable=[|1,2,3,
           |2,3,3,
           |1,2,2|];
      
ERatetable=[|1,1,
            |1,1,
            |1,1|];
%mode=[|1,1,2,
%      |1,2,1,
%      |1,1,2|];  % mode1=highPerformance   mode2=lowPower
%cost=[1,1,1]; 
next=[|1,3          
      |2,3|];
      
